p edge 28 168
e 1 2
e 1 3
e 1 4
e 1 5
e 1 6
e 1 7
e 1 8
e 1 9
e 1 10
e 1 11
e 1 12
e 1 13
e 2 3
e 2 4
e 2 5
e 2 6
e 2 7
e 2 8
e 2 14
e 2 15
e 2 16
e 2 17
e 2 18
e 3 5
e 3 6
e 3 7
e 3 9
e 3 10
e 3 15
e 3 17
e 3 19
e 3 21
e 3 22
e 4 5
e 4 6
e 4 8
e 4 11
e 4 12
e 4 14
e 4 16
e 4 20
e 4 23
e 4 24
e 5 6
e 5 11
e 5 12
e 5 15
e 5 17
e 5 21
e 5 23
e 5 27
e 6 10
e 6 12
e 6 16
e 6 17
e 6 22
e 6 24
e 6 28
e 7 8
e 7 9
e 7 10
e 7 13
e 7 14
e 7 15
e 7 18
e 7 19
e 7 26
e 8 9
e 8 11
e 8 13
e 8 14
e 8 16
e 8 18
e 8 20
e 8 25
e 9 10
e 9 11
e 9 13
e 9 19
e 9 20
e 9 21
e 9 22
e 9 25
e 10 12
e 10 13
e 10 19
e 10 22
e 10 24
e 10 26
e 10 28
e 11 12
e 11 13
e 11 20
e 11 21
e 11 23
e 11 25
e 11 27
e 12 13
e 12 23
e 12 24
e 12 26
e 12 27
e 12 28
e 13 18
e 13 25
e 13 26
e 13 27
e 13 28
e 14 15
e 14 16
e 14 18
e 14 19
e 14 20
e 14 23
e 14 24
e 14 26
e 15 17
e 15 18
e 15 19
e 15 21
e 15 23
e 15 26
e 15 27
e 16 17
e 16 18
e 16 20
e 16 22
e 16 24
e 16 25
e 16 28
e 17 18
e 17 21
e 17 22
e 17 25
e 17 27
e 17 28
e 18 25
e 18 26
e 18 27
e 18 28
e 19 20
e 19 21
e 19 22
e 19 23
e 19 24
e 19 26
e 20 21
e 20 22
e 20 23
e 20 24
e 20 25
e 21 22
e 21 23
e 21 25
e 21 27
e 22 24
e 22 25
e 22 28
e 23 24
e 23 26
e 23 27
e 24 26
e 24 28
e 25 27
e 25 28
e 26 27
e 26 28
e 27 28
